c Reading file examples/loan_acquisition/mmc_encoding/encoding.dimacs
c Building 1-fold quantitative self-composition...
c ind 100  101  106  107  108  109  110  111  115  116 0
c previous ind: 430  433  434  435  438  439  442  443  446  447  450  453  454  457  460  461  464  467  468  471  472  475  476  479  480  483  484  487  488  491  492  495  496  499  500  502  503  504 0
c This is a CNF SAT formula in the DIMACS CNF format,
c produced with the bc2cnf translator by Tommi Junttila;
c see http://users.ics.aalto.fi/tjunttil/circuits/index.html
c phi_Gamma_det <-> 1
c phi_Gamma <-> 1
c phi_T_transitions <-> 1
c phi_T <-> 1
c phi_sim_leaves <-> 1
c phi_sim_transition <-> 1
c phi_sim <-> 1
c FORMULA <-> 1
c pi_0 <-> 2
c phi_T_transitions_consistency <-> 83
c tau_0_3_approved_1 <-> 100
c tau_0_3_approved_0 <-> 101
c tau_0_2_approved_1 <-> 106
c tau_0_2_approved_0 <-> 107
c tau_0_1_approved_1 <-> 108
c tau_0_1_approved_0 <-> 109
c tau_0_0_approved_1 <-> 110
c tau_0_0_approved_0 <-> 111
c phi_T_feature_det <-> 112
c lam_0_monthly_income <-> 115
c lam_0_age <-> 116
c phi_Gamma_val <-> 428
c monthly_income_P307200 <-> 430
c pi_approved_0 <-> 433
c approved_P0 <-> 433
c monthly_income_P995200 <-> 434
c age_P3100 <-> 435
c monthly_income_P334400 <-> 438
c age_P6900 <-> 439
c monthly_income_P431100 <-> 442
c age_P7700 <-> 443
c monthly_income_P206200 <-> 446
c age_P7300 <-> 447
c monthly_income_P592800 <-> 450
c monthly_income_P599100 <-> 453
c age_P6800 <-> 454
c monthly_income_P100700 <-> 457
c monthly_income_P858700 <-> 460
c age_P6100 <-> 461
c monthly_income_P837000 <-> 464
c monthly_income_P749700 <-> 467
c age_P5400 <-> 468
c monthly_income_P160300 <-> 471
c age_P2700 <-> 472
c monthly_income_P531200 <-> 475
c age_P3600 <-> 476
c monthly_income_P980800 <-> 479
c age_P4500 <-> 480
c monthly_income_P104400 <-> 483
c age_P4000 <-> 484
c monthly_income_P531700 <-> 487
c age_P3900 <-> 488
c monthly_income_P525500 <-> 491
c age_P7600 <-> 492
c monthly_income_P670100 <-> 495
c age_P4200 <-> 496
c monthly_income_P281600 <-> 499
c age_P7400 <-> 500
c pi_approved_1 <-> 502
c approved_P100 <-> 502
c monthly_income_P678400 <-> 503
c age_P4400 <-> 504
c ind 430 433 434 435 438 439 442 443 446 447 450 453 454 457 460 461 464 467 468 471 472 475 476 479 480 483 484 487 488 491 492 495 496 499 500 502 503 504 0
p cnf 506 1407
1 0
2 -3 0
2 -10 0
-2 10 3 0
2 0
-3 4 0
-3 56 0
3 -56 -4 0
-4 5 0
-4 115 0
4 -115 -5 0
5 -6 0
5 -61 0
-5 61 6 0
6 -7 0
6 -41 0
-6 41 7 0
7 -8 0
7 -43 0
-7 43 8 0
8 -9 0
8 -53 0
-8 53 9 0
9 -69 0
9 -74 0
-9 74 69 0
10 -11 0
10 -24 0
-10 24 11 0
-11 12 0
-11 78 0
11 -78 -12 0
-12 13 0
-12 115 0
12 -115 -13 0
13 -14 0
13 -31 0
-13 31 14 0
14 -15 0
14 -33 0
-14 33 15 0
15 -16 0
15 -35 0
-15 35 16 0
16 -17 0
16 -37 0
-16 37 17 0
17 -18 0
17 -63 0
-17 63 18 0
18 -19 0
18 -39 0
-18 39 19 0
19 -20 0
19 -65 0
-19 65 20 0
20 -21 0
20 -82 0
-20 82 21 0
21 -22 0
21 -67 0
-21 67 22 0
22 -23 0
22 -71 0
-22 71 23 0
23 -44 0
23 -73 0
-23 73 44 0
24 -25 0
24 -47 0
-24 47 25 0
-25 26 0
-25 29 0
25 -29 -26 0
-26 27 0
-26 28 0
26 -28 -27 0
27 100 0
27 -502 0
-27 502 -100 0
28 101 0
28 -433 0
-28 433 -101 0
-29 30 0
-29 116 0
29 -116 -30 0
30 -31 0
30 -32 0
-30 32 31 0
-31 430 0
-31 461 0
31 -461 -430 0
32 -33 0
32 -34 0
-32 34 33 0
-33 438 0
-33 439 0
33 -439 -438 0
34 -35 0
34 -36 0
-34 36 35 0
-35 442 0
-35 443 0
35 -443 -442 0
36 -37 0
36 -38 0
-36 38 37 0
-37 446 0
-37 447 0
37 -447 -446 0
38 -39 0
38 -40 0
-38 40 39 0
-39 453 0
-39 454 0
39 -454 -453 0
40 -41 0
40 -42 0
-40 42 41 0
-41 460 0
-41 461 0
41 -461 -460 0
42 -43 0
42 -44 0
-42 44 43 0
-43 464 0
-43 492 0
43 -492 -464 0
44 -45 0
44 -46 0
-44 46 45 0
-45 491 0
-45 492 0
45 -492 -491 0
-46 499 0
-46 500 0
46 -500 -499 0
47 -48 0
47 -54 0
-47 54 48 0
-48 49 0
-48 52 0
48 -52 -49 0
-49 50 0
-49 51 0
49 -51 -50 0
50 106 0
50 -502 0
-50 502 -106 0
51 107 0
51 -433 0
-51 433 -107 0
-52 53 0
-52 116 0
52 -116 -53 0
-53 467 0
-53 468 0
53 -468 -467 0
54 -55 0
54 -77 0
-54 77 55 0
-55 56 0
-55 59 0
55 -59 -56 0
-56 57 0
-56 58 0
56 -58 -57 0
57 108 0
57 -502 0
-57 502 -108 0
58 109 0
58 -433 0
-58 433 -109 0
-59 60 0
-59 116 0
59 -116 -60 0
60 -61 0
60 -62 0
-60 62 61 0
-61 434 0
-61 435 0
61 -435 -434 0
62 -63 0
62 -64 0
-62 64 63 0
-63 450 0
-63 476 0
63 -476 -450 0
64 -65 0
64 -66 0
-64 66 65 0
-65 457 0
-65 484 0
65 -484 -457 0
66 -67 0
66 -68 0
-66 68 67 0
-67 475 0
-67 476 0
67 -476 -475 0
68 -69 0
68 -70 0
-68 70 69 0
-69 479 0
-69 480 0
69 -480 -479 0
70 -71 0
70 -72 0
-70 72 71 0
-71 483 0
-71 484 0
71 -484 -483 0
72 -73 0
72 -74 0
-72 74 73 0
-73 487 0
-73 488 0
73 -488 -487 0
74 -75 0
74 -76 0
-74 76 75 0
-75 495 0
-75 496 0
75 -496 -495 0
-76 503 0
-76 504 0
76 -504 -503 0
-77 78 0
-77 81 0
77 -81 -78 0
-78 79 0
-78 80 0
78 -80 -79 0
79 110 0
79 -502 0
-79 502 -110 0
80 111 0
80 -433 0
-80 433 -111 0
-81 82 0
-81 116 0
81 -116 -82 0
-82 471 0
-82 472 0
82 -472 -471 0
83 115 0
83 -84 0
-83 84 -115 0
83 0
-84 -100 0
-84 85 0
84 -85 100 0
-85 -101 0
-85 86 0
85 -86 101 0
-86 -106 0
-86 -107 0
86 107 106 0
87 115 0
87 -88 0
-87 88 -115 0
87 0
-88 89 0
-88 92 0
88 -92 -89 0
89 -90 0
89 -91 0
-89 91 90 0
-90 -109 0
-90 108 0
90 -108 109 0
-91 -108 0
-91 109 0
91 -109 108 0
92 -93 0
92 -94 0
-92 94 93 0
-93 -111 0
-93 110 0
93 -110 111 0
-94 -110 0
-94 111 0
94 -111 110 0
95 116 0
95 -96 0
-95 96 -116 0
95 0
-96 97 0
-96 102 0
96 -102 -97 0
97 -98 0
97 -99 0
-97 99 98 0
-98 -101 0
-98 100 0
98 -100 101 0
-99 -100 0
-99 101 0
99 -101 100 0
-102 88 0
-102 103 0
102 -103 -88 0
103 -104 0
103 -105 0
-103 105 104 0
-104 -107 0
-104 106 0
104 -106 107 0
-105 -106 0
-105 107 0
105 -107 106 0
112 -113 0
112 -114 0
-112 114 113 0
112 0
-113 -116 0
-113 115 0
113 -115 116 0
-114 -115 0
-114 116 0
114 -116 115 0
117 502 0
117 433 0
-117 -433 -502 0
117 0
118 434 0
118 430 0
-118 -430 -434 0
118 0
119 438 0
119 -120 0
-119 120 -438 0
119 0
-120 -434 0
-120 -430 0
120 430 434 0
121 442 0
121 -122 0
-121 122 -442 0
121 0
-122 -430 0
-122 123 0
122 -123 430 0
-123 -434 0
-123 -438 0
123 438 434 0
124 446 0
124 -125 0
-124 125 -446 0
124 0
-125 -430 0
-125 126 0
125 -126 430 0
-126 -434 0
-126 127 0
126 -127 434 0
-127 -438 0
-127 -442 0
127 442 438 0
128 450 0
128 -129 0
-128 129 -450 0
128 0
-129 -430 0
-129 130 0
129 -130 430 0
-130 -434 0
-130 131 0
130 -131 434 0
-131 -438 0
-131 132 0
131 -132 438 0
-132 -442 0
-132 -446 0
132 446 442 0
133 453 0
133 -134 0
-133 134 -453 0
133 0
-134 -430 0
-134 135 0
134 -135 430 0
-135 -434 0
-135 136 0
135 -136 434 0
-136 -438 0
-136 137 0
136 -137 438 0
-137 -442 0
-137 138 0
137 -138 442 0
-138 -446 0
-138 -450 0
138 450 446 0
139 457 0
139 -140 0
-139 140 -457 0
139 0
-140 -430 0
-140 141 0
140 -141 430 0
-141 -434 0
-141 142 0
141 -142 434 0
-142 -438 0
-142 143 0
142 -143 438 0
-143 -442 0
-143 144 0
143 -144 442 0
-144 -446 0
-144 145 0
144 -145 446 0
-145 -450 0
-145 -453 0
145 453 450 0
146 460 0
146 -147 0
-146 147 -460 0
146 0
-147 -430 0
-147 148 0
147 -148 430 0
-148 -434 0
-148 149 0
148 -149 434 0
-149 -438 0
-149 150 0
149 -150 438 0
-150 -442 0
-150 151 0
150 -151 442 0
-151 -446 0
-151 152 0
151 -152 446 0
-152 -450 0
-152 153 0
152 -153 450 0
-153 -453 0
-153 -457 0
153 457 453 0
154 464 0
154 -155 0
-154 155 -464 0
154 0
-155 -430 0
-155 156 0
155 -156 430 0
-156 -434 0
-156 157 0
156 -157 434 0
-157 -438 0
-157 158 0
157 -158 438 0
-158 -442 0
-158 159 0
158 -159 442 0
-159 -446 0
-159 160 0
159 -160 446 0
-160 -450 0
-160 161 0
160 -161 450 0
-161 -453 0
-161 162 0
161 -162 453 0
-162 -457 0
-162 -460 0
162 460 457 0
163 467 0
163 -164 0
-163 164 -467 0
163 0
-164 -430 0
-164 165 0
164 -165 430 0
-165 -434 0
-165 166 0
165 -166 434 0
-166 -438 0
-166 167 0
166 -167 438 0
-167 -442 0
-167 168 0
167 -168 442 0
-168 -446 0
-168 169 0
168 -169 446 0
-169 -450 0
-169 170 0
169 -170 450 0
-170 -453 0
-170 171 0
170 -171 453 0
-171 -457 0
-171 172 0
171 -172 457 0
-172 -460 0
-172 -464 0
172 464 460 0
173 471 0
173 -174 0
-173 174 -471 0
173 0
-174 -430 0
-174 175 0
174 -175 430 0
-175 -434 0
-175 176 0
175 -176 434 0
-176 -438 0
-176 177 0
176 -177 438 0
-177 -442 0
-177 178 0
177 -178 442 0
-178 -446 0
-178 179 0
178 -179 446 0
-179 -450 0
-179 180 0
179 -180 450 0
-180 -453 0
-180 181 0
180 -181 453 0
-181 -457 0
-181 182 0
181 -182 457 0
-182 -460 0
-182 183 0
182 -183 460 0
-183 -464 0
-183 -467 0
183 467 464 0
184 475 0
184 -185 0
-184 185 -475 0
184 0
-185 -430 0
-185 186 0
185 -186 430 0
-186 -434 0
-186 187 0
186 -187 434 0
-187 -438 0
-187 188 0
187 -188 438 0
-188 -442 0
-188 189 0
188 -189 442 0
-189 -446 0
-189 190 0
189 -190 446 0
-190 -450 0
-190 191 0
190 -191 450 0
-191 -453 0
-191 192 0
191 -192 453 0
-192 -457 0
-192 193 0
192 -193 457 0
-193 -460 0
-193 194 0
193 -194 460 0
-194 -464 0
-194 195 0
194 -195 464 0
-195 -467 0
-195 -471 0
195 471 467 0
196 479 0
196 -197 0
-196 197 -479 0
196 0
-197 -430 0
-197 198 0
197 -198 430 0
-198 -434 0
-198 199 0
198 -199 434 0
-199 -438 0
-199 200 0
199 -200 438 0
-200 -442 0
-200 201 0
200 -201 442 0
-201 -446 0
-201 202 0
201 -202 446 0
-202 -450 0
-202 203 0
202 -203 450 0
-203 -453 0
-203 204 0
203 -204 453 0
-204 -457 0
-204 205 0
204 -205 457 0
-205 -460 0
-205 206 0
205 -206 460 0
-206 -464 0
-206 207 0
206 -207 464 0
-207 -467 0
-207 208 0
207 -208 467 0
-208 -471 0
-208 -475 0
208 475 471 0
209 483 0
209 -210 0
-209 210 -483 0
209 0
-210 -430 0
-210 211 0
210 -211 430 0
-211 -434 0
-211 212 0
211 -212 434 0
-212 -438 0
-212 213 0
212 -213 438 0
-213 -442 0
-213 214 0
213 -214 442 0
-214 -446 0
-214 215 0
214 -215 446 0
-215 -450 0
-215 216 0
215 -216 450 0
-216 -453 0
-216 217 0
216 -217 453 0
-217 -457 0
-217 218 0
217 -218 457 0
-218 -460 0
-218 219 0
218 -219 460 0
-219 -464 0
-219 220 0
219 -220 464 0
-220 -467 0
-220 221 0
220 -221 467 0
-221 -471 0
-221 222 0
221 -222 471 0
-222 -475 0
-222 -479 0
222 479 475 0
223 487 0
223 -224 0
-223 224 -487 0
223 0
-224 -430 0
-224 225 0
224 -225 430 0
-225 -434 0
-225 226 0
225 -226 434 0
-226 -438 0
-226 227 0
226 -227 438 0
-227 -442 0
-227 228 0
227 -228 442 0
-228 -446 0
-228 229 0
228 -229 446 0
-229 -450 0
-229 230 0
229 -230 450 0
-230 -453 0
-230 231 0
230 -231 453 0
-231 -457 0
-231 232 0
231 -232 457 0
-232 -460 0
-232 233 0
232 -233 460 0
-233 -464 0
-233 234 0
233 -234 464 0
-234 -467 0
-234 235 0
234 -235 467 0
-235 -471 0
-235 236 0
235 -236 471 0
-236 -475 0
-236 237 0
236 -237 475 0
-237 -479 0
-237 -483 0
237 483 479 0
238 491 0
238 -239 0
-238 239 -491 0
238 0
-239 -430 0
-239 240 0
239 -240 430 0
-240 -434 0
-240 241 0
240 -241 434 0
-241 -438 0
-241 242 0
241 -242 438 0
-242 -442 0
-242 243 0
242 -243 442 0
-243 -446 0
-243 244 0
243 -244 446 0
-244 -450 0
-244 245 0
244 -245 450 0
-245 -453 0
-245 246 0
245 -246 453 0
-246 -457 0
-246 247 0
246 -247 457 0
-247 -460 0
-247 248 0
247 -248 460 0
-248 -464 0
-248 249 0
248 -249 464 0
-249 -467 0
-249 250 0
249 -250 467 0
-250 -471 0
-250 251 0
250 -251 471 0
-251 -475 0
-251 252 0
251 -252 475 0
-252 -479 0
-252 253 0
252 -253 479 0
-253 -483 0
-253 -487 0
253 487 483 0
254 495 0
254 -255 0
-254 255 -495 0
254 0
-255 -430 0
-255 256 0
255 -256 430 0
-256 -434 0
-256 257 0
256 -257 434 0
-257 -438 0
-257 258 0
257 -258 438 0
-258 -442 0
-258 259 0
258 -259 442 0
-259 -446 0
-259 260 0
259 -260 446 0
-260 -450 0
-260 261 0
260 -261 450 0
-261 -453 0
-261 262 0
261 -262 453 0
-262 -457 0
-262 263 0
262 -263 457 0
-263 -460 0
-263 264 0
263 -264 460 0
-264 -464 0
-264 265 0
264 -265 464 0
-265 -467 0
-265 266 0
265 -266 467 0
-266 -471 0
-266 267 0
266 -267 471 0
-267 -475 0
-267 268 0
267 -268 475 0
-268 -479 0
-268 269 0
268 -269 479 0
-269 -483 0
-269 270 0
269 -270 483 0
-270 -487 0
-270 -491 0
270 491 487 0
271 499 0
271 -272 0
-271 272 -499 0
271 0
-272 -430 0
-272 273 0
272 -273 430 0
-273 -434 0
-273 274 0
273 -274 434 0
-274 -438 0
-274 275 0
274 -275 438 0
-275 -442 0
-275 276 0
275 -276 442 0
-276 -446 0
-276 277 0
276 -277 446 0
-277 -450 0
-277 278 0
277 -278 450 0
-278 -453 0
-278 279 0
278 -279 453 0
-279 -457 0
-279 280 0
279 -280 457 0
-280 -460 0
-280 281 0
280 -281 460 0
-281 -464 0
-281 282 0
281 -282 464 0
-282 -467 0
-282 283 0
282 -283 467 0
-283 -471 0
-283 284 0
283 -284 471 0
-284 -475 0
-284 285 0
284 -285 475 0
-285 -479 0
-285 286 0
285 -286 479 0
-286 -483 0
-286 287 0
286 -287 483 0
-287 -487 0
-287 288 0
287 -288 487 0
-288 -491 0
-288 -495 0
288 495 491 0
289 503 0
289 -290 0
-289 290 -503 0
289 0
-290 -430 0
-290 291 0
290 -291 430 0
-291 -434 0
-291 292 0
291 -292 434 0
-292 -438 0
-292 293 0
292 -293 438 0
-293 -442 0
-293 294 0
293 -294 442 0
-294 -446 0
-294 295 0
294 -295 446 0
-295 -450 0
-295 296 0
295 -296 450 0
-296 -453 0
-296 297 0
296 -297 453 0
-297 -457 0
-297 298 0
297 -298 457 0
-298 -460 0
-298 299 0
298 -299 460 0
-299 -464 0
-299 300 0
299 -300 464 0
-300 -467 0
-300 301 0
300 -301 467 0
-301 -471 0
-301 302 0
301 -302 471 0
-302 -475 0
-302 303 0
302 -303 475 0
-303 -479 0
-303 304 0
303 -304 479 0
-304 -483 0
-304 305 0
304 -305 483 0
-305 -487 0
-305 306 0
305 -306 487 0
-306 -491 0
-306 307 0
306 -307 491 0
-307 -495 0
-307 -499 0
307 499 495 0
308 439 0
308 435 0
-308 -435 -439 0
308 0
309 443 0
309 -310 0
-309 310 -443 0
309 0
-310 -439 0
-310 -435 0
310 435 439 0
311 447 0
311 -312 0
-311 312 -447 0
311 0
-312 -435 0
-312 313 0
312 -313 435 0
-313 -439 0
-313 -443 0
313 443 439 0
314 454 0
314 -315 0
-314 315 -454 0
314 0
-315 -435 0
-315 316 0
315 -316 435 0
-316 -439 0
-316 317 0
316 -317 439 0
-317 -443 0
-317 -447 0
317 447 443 0
318 461 0
318 -319 0
-318 319 -461 0
318 0
-319 -435 0
-319 320 0
319 -320 435 0
-320 -439 0
-320 321 0
320 -321 439 0
-321 -443 0
-321 322 0
321 -322 443 0
-322 -447 0
-322 -454 0
322 454 447 0
323 468 0
323 -324 0
-323 324 -468 0
323 0
-324 -435 0
-324 325 0
324 -325 435 0
-325 -439 0
-325 326 0
325 -326 439 0
-326 -443 0
-326 327 0
326 -327 443 0
-327 -447 0
-327 328 0
327 -328 447 0
-328 -454 0
-328 -461 0
328 461 454 0
329 472 0
329 -330 0
-329 330 -472 0
329 0
-330 -435 0
-330 331 0
330 -331 435 0
-331 -439 0
-331 332 0
331 -332 439 0
-332 -443 0
-332 333 0
332 -333 443 0
-333 -447 0
-333 334 0
333 -334 447 0
-334 -454 0
-334 335 0
334 -335 454 0
-335 -461 0
-335 -468 0
335 468 461 0
336 476 0
336 -337 0
-336 337 -476 0
336 0
-337 -435 0
-337 338 0
337 -338 435 0
-338 -439 0
-338 339 0
338 -339 439 0
-339 -443 0
-339 340 0
339 -340 443 0
-340 -447 0
-340 341 0
340 -341 447 0
-341 -454 0
-341 342 0
341 -342 454 0
-342 -461 0
-342 343 0
342 -343 461 0
-343 -468 0
-343 -472 0
343 472 468 0
344 480 0
344 -345 0
-344 345 -480 0
344 0
-345 -435 0
-345 346 0
345 -346 435 0
-346 -439 0
-346 347 0
346 -347 439 0
-347 -443 0
-347 348 0
347 -348 443 0
-348 -447 0
-348 349 0
348 -349 447 0
-349 -454 0
-349 350 0
349 -350 454 0
-350 -461 0
-350 351 0
350 -351 461 0
-351 -468 0
-351 352 0
351 -352 468 0
-352 -472 0
-352 -476 0
352 476 472 0
353 484 0
353 -354 0
-353 354 -484 0
353 0
-354 -435 0
-354 355 0
354 -355 435 0
-355 -439 0
-355 356 0
355 -356 439 0
-356 -443 0
-356 357 0
356 -357 443 0
-357 -447 0
-357 358 0
357 -358 447 0
-358 -454 0
-358 359 0
358 -359 454 0
-359 -461 0
-359 360 0
359 -360 461 0
-360 -468 0
-360 361 0
360 -361 468 0
-361 -472 0
-361 362 0
361 -362 472 0
-362 -476 0
-362 -480 0
362 480 476 0
363 488 0
363 -364 0
-363 364 -488 0
363 0
-364 -435 0
-364 365 0
364 -365 435 0
-365 -439 0
-365 366 0
365 -366 439 0
-366 -443 0
-366 367 0
366 -367 443 0
-367 -447 0
-367 368 0
367 -368 447 0
-368 -454 0
-368 369 0
368 -369 454 0
-369 -461 0
-369 370 0
369 -370 461 0
-370 -468 0
-370 371 0
370 -371 468 0
-371 -472 0
-371 372 0
371 -372 472 0
-372 -476 0
-372 373 0
372 -373 476 0
-373 -480 0
-373 -484 0
373 484 480 0
374 492 0
374 -375 0
-374 375 -492 0
374 0
-375 -435 0
-375 376 0
375 -376 435 0
-376 -439 0
-376 377 0
376 -377 439 0
-377 -443 0
-377 378 0
377 -378 443 0
-378 -447 0
-378 379 0
378 -379 447 0
-379 -454 0
-379 380 0
379 -380 454 0
-380 -461 0
-380 381 0
380 -381 461 0
-381 -468 0
-381 382 0
381 -382 468 0
-382 -472 0
-382 383 0
382 -383 472 0
-383 -476 0
-383 384 0
383 -384 476 0
-384 -480 0
-384 385 0
384 -385 480 0
-385 -484 0
-385 -488 0
385 488 484 0
386 496 0
386 -387 0
-386 387 -496 0
386 0
-387 -435 0
-387 388 0
387 -388 435 0
-388 -439 0
-388 389 0
388 -389 439 0
-389 -443 0
-389 390 0
389 -390 443 0
-390 -447 0
-390 391 0
390 -391 447 0
-391 -454 0
-391 392 0
391 -392 454 0
-392 -461 0
-392 393 0
392 -393 461 0
-393 -468 0
-393 394 0
393 -394 468 0
-394 -472 0
-394 395 0
394 -395 472 0
-395 -476 0
-395 396 0
395 -396 476 0
-396 -480 0
-396 397 0
396 -397 480 0
-397 -484 0
-397 398 0
397 -398 484 0
-398 -488 0
-398 -492 0
398 492 488 0
399 500 0
399 -400 0
-399 400 -500 0
399 0
-400 -435 0
-400 401 0
400 -401 435 0
-401 -439 0
-401 402 0
401 -402 439 0
-402 -443 0
-402 403 0
402 -403 443 0
-403 -447 0
-403 404 0
403 -404 447 0
-404 -454 0
-404 405 0
404 -405 454 0
-405 -461 0
-405 406 0
405 -406 461 0
-406 -468 0
-406 407 0
406 -407 468 0
-407 -472 0
-407 408 0
407 -408 472 0
-408 -476 0
-408 409 0
408 -409 476 0
-409 -480 0
-409 410 0
409 -410 480 0
-410 -484 0
-410 411 0
410 -411 484 0
-411 -488 0
-411 412 0
411 -412 488 0
-412 -492 0
-412 -496 0
412 496 492 0
413 504 0
413 -414 0
-413 414 -504 0
413 0
-414 -435 0
-414 415 0
414 -415 435 0
-415 -439 0
-415 416 0
415 -416 439 0
-416 -443 0
-416 417 0
416 -417 443 0
-417 -447 0
-417 418 0
417 -418 447 0
-418 -454 0
-418 419 0
418 -419 454 0
-419 -461 0
-419 420 0
419 -420 461 0
-420 -468 0
-420 421 0
420 -421 468 0
-421 -472 0
-421 422 0
421 -422 472 0
-422 -476 0
-422 423 0
422 -423 476 0
-423 -480 0
-423 424 0
423 -424 480 0
-424 -484 0
-424 425 0
424 -425 484 0
-425 -488 0
-425 426 0
425 -426 488 0
-426 -492 0
-426 427 0
426 -427 492 0
-427 -496 0
-427 -500 0
427 500 496 0
428 -429 0
428 -431 0
-428 431 429 0
428 0
-429 31 0
-429 502 0
429 -502 -31 0
431 -432 0
431 -436 0
-431 436 432 0
-432 61 0
-432 433 0
432 -433 -61 0
436 -437 0
436 -440 0
-436 440 437 0
-437 33 0
-437 502 0
437 -502 -33 0
440 -441 0
440 -444 0
-440 444 441 0
-441 35 0
-441 502 0
441 -502 -35 0
444 -445 0
444 -448 0
-444 448 445 0
-445 37 0
-445 502 0
445 -502 -37 0
448 -449 0
448 -451 0
-448 451 449 0
-449 63 0
-449 502 0
449 -502 -63 0
451 -452 0
451 -455 0
-451 455 452 0
-452 39 0
-452 502 0
452 -502 -39 0
455 -456 0
455 -458 0
-455 458 456 0
-456 65 0
-456 502 0
456 -502 -65 0
458 -459 0
458 -462 0
-458 462 459 0
-459 41 0
-459 502 0
459 -502 -41 0
462 -463 0
462 -465 0
-462 465 463 0
-463 43 0
-463 502 0
463 -502 -43 0
465 -466 0
465 -469 0
-465 469 466 0
-466 53 0
-466 502 0
466 -502 -53 0
469 -470 0
469 -473 0
-469 473 470 0
-470 82 0
-470 502 0
470 -502 -82 0
473 -474 0
473 -477 0
-473 477 474 0
-474 67 0
-474 502 0
474 -502 -67 0
477 -478 0
477 -481 0
-477 481 478 0
-478 69 0
-478 502 0
478 -502 -69 0
481 -482 0
481 -485 0
-481 485 482 0
-482 71 0
-482 502 0
482 -502 -71 0
485 -486 0
485 -489 0
-485 489 486 0
-486 73 0
-486 502 0
486 -502 -73 0
489 -490 0
489 -493 0
-489 493 490 0
-490 45 0
-490 502 0
490 -502 -45 0
493 -494 0
493 -497 0
-493 497 494 0
-494 75 0
-494 502 0
494 -502 -75 0
497 -498 0
497 -501 0
-497 501 498 0
-498 46 0
-498 502 0
498 -502 -46 0
-501 76 0
-501 502 0
501 -502 -76 0
